
  22   10
  10   10   10   10   10   10   10   10   10   10

   0   0   0   0   0   0   0   0   0   0   0   6 2 3 4 6 7 8 
   4  10  10  10  10  10  10  10  10  10  10   3 11 10 5 
   2  10  10  10  10  10  10  10  10  10  10   3 21 10 9 
   4  10  10  10  10  10  10  10  10  10  10   3 21 10 9 
   4  10  10  10  10  10  10  10  10  10  10   3 15 13 9 
   2  10  10  10  10  10  10  10  10  10  10   3 21 12 10 
   6  10  10  10  10  10  10  10  10  10  10   4 21 17 16 14 
   4  10  10  10  10  10  10  10  10  10  10   4 20 18 15 14 
   9  10  10  10  10  10  10  10  10  10  10   2 16 12 
   7  10  10  10  10  10  10  10  10  10  10   3 20 18 15 
   2  10  10  10  10  10  10  10  10  10  10   3 21 20 18 
   5  10  10  10  10  10  10  10  10  10  10   2 17 14 
   8  10  10  10  10  10  10  10  10  10  10   2 20 17 
   4  10  10  10  10  10  10  10  10  10  10   1 19 
   2  10  10  10  10  10  10  10  10  10  10   1 17 
   5  10  10  10  10  10  10  10  10  10  10   1 18 
   6  10  10  10  10  10  10  10  10  10  10   1 22
   5  10  10  10  10  10  10  10  10  10  10   1 22
   7  10  10  10  10  10  10  10  10  10  10   1 22
   7  10  10  10  10  10  10  10  10  10  10   1 22
   3  10  10  10  10  10  10  10  10  10  10   1 22
   0   0   0   0   0   0   0   0   0   0   0   0 
